Route #1: 13 38 16 46 34 40 31 11 50 6
Route #2: 15 26 14 42 41 20 43 45 18 5
Route #3: 47 39 10 17 51 35 22 30 3 12 33
Route #4: 48 19 25 44 8 24 7 28
Route #5: 49 9 27 32 29 4 37 36 21 23 2
cost 535